! FREQ B3LYP 6-31G KeepDens

%maxcore 2048

%pal
   nprocs 8
end

%scf Guess MORead
     MOInp "opt.gbw"
end

* xyzfile 0 1 opt.xyz
