! OPT B3LYP 6-31G

%maxcore 2048

%pal
   nprocs 8
end

* xyz 0 1 
 C     0.000000     0.000000     0.000000
 O     0.000000     0.000000     1.220000
 H     0.943102     0.000000    -0.544500
 H    -0.943102     0.000000    -0.544500
*
