! OPT B3LYP 6-31G

%maxcore 2048

%pal
   nprocs 8
end

* xyz 0 1 
 C     0.000000     0.000000     0.000000
 O     0.000000     0.000000     1.400000
 O     1.056551     0.000000    -0.610000
 H     0.895669     0.000000     1.716667
 C    -1.255737     0.000000    -0.725000
 C    -2.468172     0.000000    -0.025000
 C    -3.680608     0.000000    -0.725000
 C    -3.680608     0.000000    -2.125000
 C    -2.468172     0.000000    -2.825000
 C    -1.255737     0.000000    -2.125000
 H    -2.468172     0.000000     1.064000
 H    -4.623710     0.000000    -0.180500
 H    -4.623710     0.000000    -2.669500
 H    -2.468172     0.000000    -3.914000
 H    -0.312635     0.000000    -2.669500
*
